c instance by G2
c solution = 100111011011101
c Known solution cost is 56
p cnf 15 15
w 7 3 2 2 5 3 9 1 4 0 3 2 6 7 2
-5 11 4 0
-11 6 -5 0
-2 4 -15 0
11 -13 -1 0
-1 -13 -10 0
5 -7 -6 0
11 -10 15 0
14 -3 8 0
11 14 4 0
-9 6 -14 0
7 11 14 0
13 9 12 0
-6 -14 5 0
10 13 5 0
2 -9 -7 0
